40 200
9 1
14 6
1 4
7 3
7 7
1 2
9 6
1 6
2 4
12 4
9 2
13 4
12 1
14 1
1 4
12 2
12 6
1 3
6 1
8 6
4 3
6 6
8 4
7 3
7 5
11 2
4 6
3 6
11 5
7 6
14 2
6 5
11 1
13 3
7 4
12 6
14 4
9 6
14 2
5 2
